WARNING: for repeatability, setting FPU to use double precision
============================[ Problem Statistics ]=============================
|                                                                             |
|  Number of variables:           100                                         |
|  Number of clauses:             449                                         |
|  Parse time:                   0.00 s                                       |
|  Eliminated clauses:           0.00 Mb                                      |
|  Simplification time:          0.00 s                                       |
|                                                                             |
============================[ Search Statistics ]==============================
| Conflicts |          ORIGINAL         |          LEARNT          | Progress |
|           |    Vars  Clauses Literals |    Limit  Clauses Lit/Cl |          |
===============================================================================
|       100 |      99      449     1351 |      164      100      7 |  0.010 % |
===============================================================================
restarts              : 3
conflicts             : 244            (79221 /sec)
decisions             : 315            (0.00 % random) (102273 /sec)
propagations          : 5777           (1875649 /sec)
conflict literals     : 1490           (19.33 % deleted)
Memory used           : 13.00 MB
CPU time              : 0.00308 s

SATISFIABLE
